(set-info :smt-lib-version 2.6)
(set-logic QF_FP)
(set-info :source |
Generated by: Chenqi Cui
Generated on: 2026-01-04
Generator: AutoSMTGen
Application: Generating SMT constraints with small solution spaces to make them challenging for SMT solvers
Target solver: Z3, CVC5, Bitwuzla
|)
(set-info :license "https://creativecommons.org/licenses/by/4.0/")
(set-info :category "industrial")
(set-info :status unsat)
; benchmark generated from python API

(declare-fun x10 () (_ FloatingPoint 11 53))
(declare-fun x9 () (_ FloatingPoint 11 53))
(declare-fun x8 () (_ FloatingPoint 11 53))
(declare-fun x7 () (_ FloatingPoint 11 53))
(declare-fun x6 () (_ FloatingPoint 11 53))
(declare-fun x5 () (_ FloatingPoint 11 53))
(declare-fun x4 () (_ FloatingPoint 11 53))
(declare-fun x3 () (_ FloatingPoint 11 53))
(declare-fun x2 () (_ FloatingPoint 11 53))
(declare-fun x1 () (_ FloatingPoint 11 53))
(declare-fun x0 () (_ FloatingPoint 11 53))
(assert
 (let ((?x21 (fp.add roundNearestTiesToEven (fp.mul roundNearestTiesToEven (fp #b1 #b10000000010 #xa4bc852734792) x0) (fp.mul roundNearestTiesToEven (fp #b1 #b10000000100 #xe40b060570134) x1))))
 (let ((?x24 (fp.add roundNearestTiesToEven ?x21 (fp.mul roundNearestTiesToEven (fp #b0 #b10000000100 #xafad4198fc212) x2))))
 (let ((?x27 (fp.add roundNearestTiesToEven ?x24 (fp.mul roundNearestTiesToEven (fp #b1 #b10000000101 #x195e18a55e36f) x3))))
 (let ((?x30 (fp.add roundNearestTiesToEven ?x27 (fp.mul roundNearestTiesToEven (fp #b1 #b10000000011 #x7265176eec3dc) x4))))
 (let ((?x33 (fp.add roundNearestTiesToEven ?x30 (fp.mul roundNearestTiesToEven (fp #b1 #b10000000101 #x59bfa97303341) x5))))
 (let ((?x36 (fp.add roundNearestTiesToEven ?x33 (fp.mul roundNearestTiesToEven (fp #b0 #b10000000100 #x8ce71944ab813) x6))))
 (let ((?x39 (fp.add roundNearestTiesToEven ?x36 (fp.mul roundNearestTiesToEven (fp #b0 #b10000000101 #x99ff4db32c43c) x7))))
 (let ((?x42 (fp.add roundNearestTiesToEven ?x39 (fp.mul roundNearestTiesToEven (fp #b0 #b10000000100 #xe0a3449985cda) x8))))
 (let ((?x45 (fp.add roundNearestTiesToEven ?x42 (fp.mul roundNearestTiesToEven (fp #b1 #b10000000101 #x9051387f9892a) x9))))
 (let ((?x48 (fp.add roundNearestTiesToEven ?x45 (fp.mul roundNearestTiesToEven (fp #b1 #b10000000000 #x898616cd1c3e6) x10))))
 (fp.leq ?x48 (fp #b0 #b01111111111 #xd0ba41b99fb80)))))))))))))
(assert
 (let ((?x72 (fp.add roundNearestTiesToEven (fp.mul roundNearestTiesToEven (fp #b0 #b10000000000 #x3a78154298e3c) x0) (fp.mul roundNearestTiesToEven (fp #b1 #b10000000101 #x32a37428d3d80) x1))))
 (let ((?x75 (fp.add roundNearestTiesToEven ?x72 (fp.mul roundNearestTiesToEven (fp #b0 #b10000000010 #xc108615eba996) x2))))
 (let ((?x78 (fp.add roundNearestTiesToEven ?x75 (fp.mul roundNearestTiesToEven (fp #b0 #b10000000011 #xb6d4f51af2292) x3))))
 (let ((?x81 (fp.add roundNearestTiesToEven ?x78 (fp.mul roundNearestTiesToEven (fp #b0 #b10000000011 #x7ac022075131c) x4))))
 (let ((?x84 (fp.add roundNearestTiesToEven ?x81 (fp.mul roundNearestTiesToEven (fp #b0 #b10000000100 #x64c6fc7e52428) x5))))
 (let ((?x87 (fp.add roundNearestTiesToEven ?x84 (fp.mul roundNearestTiesToEven (fp #b0 #b10000000101 #x74e5da7442790) x6))))
 (let ((?x90 (fp.add roundNearestTiesToEven ?x87 (fp.mul roundNearestTiesToEven (fp #b1 #b10000000100 #xc2a7ff6b5395e) x7))))
 (let ((?x93 (fp.add roundNearestTiesToEven ?x90 (fp.mul roundNearestTiesToEven (fp #b0 #b10000000100 #x36751d69c733d) x8))))
 (let ((?x96 (fp.add roundNearestTiesToEven ?x93 (fp.mul roundNearestTiesToEven (fp #b1 #b10000000011 #xaa41b5be00c3a) x9))))
 (let ((?x99 (fp.add roundNearestTiesToEven ?x96 (fp.mul roundNearestTiesToEven (fp #b0 #b10000000011 #xf67c54f79975d) x10))))
 (fp.leq ?x99 (fp #b1 #b10000000100 #xa1b1f1124e3c8)))))))))))))
(assert
 (let ((?x106 (fp.add roundNearestTiesToEven (fp.mul roundNearestTiesToEven (fp #b1 #b10000000101 #x7f2eeb6e6dc14) x0) (fp.mul roundNearestTiesToEven (fp #b1 #b10000000001 #xf4e83efe110c8) x1))))
 (let ((?x109 (fp.add roundNearestTiesToEven ?x106 (fp.mul roundNearestTiesToEven (fp #b0 #b10000000101 #xa61cf6bfe7e3f) x2))))
 (let ((?x112 (fp.add roundNearestTiesToEven ?x109 (fp.mul roundNearestTiesToEven (fp #b1 #b10000000011 #x35aed22ddd5f0) x3))))
 (let ((?x115 (fp.add roundNearestTiesToEven ?x112 (fp.mul roundNearestTiesToEven (fp #b1 #b10000000001 #xf57c8c30839fc) x4))))
 (let ((?x118 (fp.add roundNearestTiesToEven ?x115 (fp.mul roundNearestTiesToEven (fp #b1 #b10000000101 #x5f57ec2bcc7ea) x5))))
 (let ((?x121 (fp.add roundNearestTiesToEven ?x118 (fp.mul roundNearestTiesToEven (fp #b1 #b10000000101 #x6dd66b092efc8) x6))))
 (let ((?x124 (fp.add roundNearestTiesToEven ?x121 (fp.mul roundNearestTiesToEven (fp #b0 #b10000000100 #xbed5b6d2f4ac7) x7))))
 (let ((?x127 (fp.add roundNearestTiesToEven ?x124 (fp.mul roundNearestTiesToEven (fp #b0 #b10000000100 #x754c41d099fcc) x8))))
 (let ((?x130 (fp.add roundNearestTiesToEven ?x127 (fp.mul roundNearestTiesToEven (fp #b1 #b10000000010 #x29c3cff02fc82) x9))))
 (let ((?x133 (fp.add roundNearestTiesToEven ?x130 (fp.mul roundNearestTiesToEven (fp #b0 #b10000000011 #x21f31b15711da) x10))))
 (fp.leq ?x133 (fp #b1 #b10000000101 #x4f954307f9faf)))))))))))))
(assert
 (let ((?x140 (fp.add roundNearestTiesToEven (fp.mul roundNearestTiesToEven (fp #b0 #b10000000101 #x6e72dd7048595) x0) (fp.mul roundNearestTiesToEven (fp #b0 #b10000000010 #xd5f82119a9530) x1))))
 (let ((?x143 (fp.add roundNearestTiesToEven ?x140 (fp.mul roundNearestTiesToEven (fp #b1 #b10000000101 #x848ce85eefc9c) x2))))
 (let ((?x146 (fp.add roundNearestTiesToEven ?x143 (fp.mul roundNearestTiesToEven (fp #b0 #b10000000101 #x0f78b2d3ac4c4) x3))))
 (let ((?x149 (fp.add roundNearestTiesToEven ?x146 (fp.mul roundNearestTiesToEven (fp #b1 #b10000000101 #x053b51a6df132) x4))))
 (let ((?x152 (fp.add roundNearestTiesToEven ?x149 (fp.mul roundNearestTiesToEven (fp #b1 #b10000000010 #xf339651c9902c) x5))))
 (let ((?x155 (fp.add roundNearestTiesToEven ?x152 (fp.mul roundNearestTiesToEven (fp #b1 #b10000000101 #x11e0eabf96c31) x6))))
 (let ((?x158 (fp.add roundNearestTiesToEven ?x155 (fp.mul roundNearestTiesToEven (fp #b1 #b10000000101 #xcbd8f4b0e782d) x7))))
 (let ((?x161 (fp.add roundNearestTiesToEven ?x158 (fp.mul roundNearestTiesToEven (fp #b1 #b10000000011 #x138ebf7359026) x8))))
 (let ((?x164 (fp.add roundNearestTiesToEven ?x161 (fp.mul roundNearestTiesToEven (fp #b1 #b10000000101 #x100047b3b7536) x9))))
 (let ((?x167 (fp.add roundNearestTiesToEven ?x164 (fp.mul roundNearestTiesToEven (fp #b1 #b10000000011 #xc875dfe651bfd) x10))))
 (fp.leq ?x167 (fp #b0 #b10000000101 #x17f7d7f298cd0)))))))))))))
(assert
 (let ((?x174 (fp.add roundNearestTiesToEven (fp.mul roundNearestTiesToEven (fp #b1 #b01111111111 #xf51904e0d80a0) x0) (fp.mul roundNearestTiesToEven (fp #b0 #b10000000100 #xd9e735b833ade) x1))))
 (let ((?x177 (fp.add roundNearestTiesToEven ?x174 (fp.mul roundNearestTiesToEven (fp #b0 #b10000000100 #x0a3e051c61b54) x2))))
 (let ((?x180 (fp.add roundNearestTiesToEven ?x177 (fp.mul roundNearestTiesToEven (fp #b1 #b10000000100 #x09aa5c2949e58) x3))))
 (let ((?x183 (fp.add roundNearestTiesToEven ?x180 (fp.mul roundNearestTiesToEven (fp #b0 #b10000000101 #x554e1c3acfe20) x4))))
 (let ((?x186 (fp.add roundNearestTiesToEven ?x183 (fp.mul roundNearestTiesToEven (fp #b1 #b10000000101 #x2a53894742fe8) x5))))
 (let ((?x189 (fp.add roundNearestTiesToEven ?x186 (fp.mul roundNearestTiesToEven (fp #b0 #b10000000101 #x4933d89fd681e) x6))))
 (let ((?x192 (fp.add roundNearestTiesToEven ?x189 (fp.mul roundNearestTiesToEven (fp #b0 #b10000000101 #x775a5b68edb80) x7))))
 (let ((?x195 (fp.add roundNearestTiesToEven ?x192 (fp.mul roundNearestTiesToEven (fp #b1 #b01111111111 #xe84ada7ad9930) x8))))
 (let ((?x198 (fp.add roundNearestTiesToEven ?x195 (fp.mul roundNearestTiesToEven (fp #b0 #b10000000011 #x8a3d82bcc4f5b) x9))))
 (let ((?x201 (fp.add roundNearestTiesToEven ?x198 (fp.mul roundNearestTiesToEven (fp #b0 #b10000000101 #x5b39401e696d4) x10))))
 (fp.leq ?x201 (fp #b0 #b10000000100 #xa2a3eff11e114)))))))))))))
(assert
 (let ((?x208 (fp.add roundNearestTiesToEven (fp.mul roundNearestTiesToEven (fp #b0 #b10000000100 #xff63df87c4294) x0) (fp.mul roundNearestTiesToEven (fp #b0 #b10000000011 #xb9b583c444add) x1))))
 (let ((?x211 (fp.add roundNearestTiesToEven ?x208 (fp.mul roundNearestTiesToEven (fp #b1 #b10000000100 #x2cd052aebbe2f) x2))))
 (let ((?x214 (fp.add roundNearestTiesToEven ?x211 (fp.mul roundNearestTiesToEven (fp #b1 #b10000000001 #xe8d243f05a7c6) x3))))
 (let ((?x217 (fp.add roundNearestTiesToEven ?x214 (fp.mul roundNearestTiesToEven (fp #b1 #b10000000100 #x6f83c93611d4e) x4))))
 (let ((?x220 (fp.add roundNearestTiesToEven ?x217 (fp.mul roundNearestTiesToEven (fp #b0 #b10000000100 #x01dfb49287847) x5))))
 (let ((?x223 (fp.add roundNearestTiesToEven ?x220 (fp.mul roundNearestTiesToEven (fp #b0 #b10000000101 #x4acb3ab23b293) x6))))
 (let ((?x226 (fp.add roundNearestTiesToEven ?x223 (fp.mul roundNearestTiesToEven (fp #b1 #b10000000001 #x86db20f9eb881) x7))))
 (let ((?x229 (fp.add roundNearestTiesToEven ?x226 (fp.mul roundNearestTiesToEven (fp #b0 #b10000000011 #x82545e7e82e7a) x8))))
 (let ((?x232 (fp.add roundNearestTiesToEven ?x229 (fp.mul roundNearestTiesToEven (fp #b0 #b10000000101 #x2dd890f004877) x9))))
 (let ((?x235 (fp.add roundNearestTiesToEven ?x232 (fp.mul roundNearestTiesToEven (fp #b1 #b10000000100 #xcc191cfc102cf) x10))))
 (fp.leq ?x235 (fp #b0 #b10000000100 #xe9bcae14c6e84)))))))))))))
(assert
 (let ((?x242 (fp.add roundNearestTiesToEven (fp.mul roundNearestTiesToEven (fp #b0 #b10000000100 #xb4e4c9e5f36bd) x0) (fp.mul roundNearestTiesToEven (fp #b0 #b10000000101 #x3e7a0b6a9ca85) x1))))
 (let ((?x245 (fp.add roundNearestTiesToEven ?x242 (fp.mul roundNearestTiesToEven (fp #b0 #b10000000101 #x5ef9874787dbb) x2))))
 (let ((?x248 (fp.add roundNearestTiesToEven ?x245 (fp.mul roundNearestTiesToEven (fp #b0 #b10000000101 #xb8c6432759ae1) x3))))
 (let ((?x251 (fp.add roundNearestTiesToEven ?x248 (fp.mul roundNearestTiesToEven (fp #b0 #b10000000100 #x48168a87e1f03) x4))))
 (let ((?x254 (fp.add roundNearestTiesToEven ?x251 (fp.mul roundNearestTiesToEven (fp #b1 #b10000000100 #x3faeee9cc5a90) x5))))
 (let ((?x257 (fp.add roundNearestTiesToEven ?x254 (fp.mul roundNearestTiesToEven (fp #b1 #b10000000100 #x6d4020db50b8c) x6))))
 (let ((?x260 (fp.add roundNearestTiesToEven ?x257 (fp.mul roundNearestTiesToEven (fp #b1 #b10000000100 #xb7da015a1e182) x7))))
 (let ((?x263 (fp.add roundNearestTiesToEven ?x260 (fp.mul roundNearestTiesToEven (fp #b1 #b10000000101 #xb1633ababa072) x8))))
 (let ((?x266 (fp.add roundNearestTiesToEven ?x263 (fp.mul roundNearestTiesToEven (fp #b0 #b10000000101 #x15487cc0b3dcc) x9))))
 (let ((?x269 (fp.add roundNearestTiesToEven ?x266 (fp.mul roundNearestTiesToEven (fp #b1 #b10000000100 #x929dd68a0b6b8) x10))))
 (fp.leq ?x269 (fp #b0 #b10000000100 #xd8a2332db46a8)))))))))))))
(assert
 (let ((?x276 (fp.add roundNearestTiesToEven (fp.mul roundNearestTiesToEven (fp #b1 #b01111111111 #x69f0dad18fa88) x0) (fp.mul roundNearestTiesToEven (fp #b0 #b10000000101 #x165817dc4f187) x1))))
 (let ((?x279 (fp.add roundNearestTiesToEven ?x276 (fp.mul roundNearestTiesToEven (fp #b0 #b10000000100 #x2cf9af8d795fc) x2))))
 (let ((?x282 (fp.add roundNearestTiesToEven ?x279 (fp.mul roundNearestTiesToEven (fp #b0 #b10000000000 #xc46cb91f31d30) x3))))
 (let ((?x285 (fp.add roundNearestTiesToEven ?x282 (fp.mul roundNearestTiesToEven (fp #b1 #b10000000011 #x3279ac2b8781a) x4))))
 (let ((?x288 (fp.add roundNearestTiesToEven ?x285 (fp.mul roundNearestTiesToEven (fp #b0 #b10000000100 #xd3d6b79b9624a) x5))))
 (let ((?x291 (fp.add roundNearestTiesToEven ?x288 (fp.mul roundNearestTiesToEven (fp #b1 #b10000000100 #x461dfead1a7ef) x6))))
 (let ((?x294 (fp.add roundNearestTiesToEven ?x291 (fp.mul roundNearestTiesToEven (fp #b1 #b10000000100 #x9d912ef7a6a69) x7))))
 (let ((?x297 (fp.add roundNearestTiesToEven ?x294 (fp.mul roundNearestTiesToEven (fp #b1 #b10000000101 #xd505a10380986) x8))))
 (let ((?x300 (fp.add roundNearestTiesToEven ?x297 (fp.mul roundNearestTiesToEven (fp #b1 #b10000000101 #x1a17ce935de91) x9))))
 (let ((?x303 (fp.add roundNearestTiesToEven ?x300 (fp.mul roundNearestTiesToEven (fp #b1 #b10000000101 #x336d7986c7605) x10))))
 (fp.leq ?x303 (fp #b1 #b10000000101 #x1aa84e34d585a)))))))))))))
(assert
 (let ((?x310 (fp.add roundNearestTiesToEven (fp.mul roundNearestTiesToEven (fp #b1 #b10000000011 #xf56cb190613bc) x0) (fp.mul roundNearestTiesToEven (fp #b0 #b10000000101 #x29264b69d9594) x1))))
 (let ((?x313 (fp.add roundNearestTiesToEven ?x310 (fp.mul roundNearestTiesToEven (fp #b0 #b10000000100 #xdc9324492e1f3) x2))))
 (let ((?x316 (fp.add roundNearestTiesToEven ?x313 (fp.mul roundNearestTiesToEven (fp #b1 #b10000000101 #x2070d1e713222) x3))))
 (let ((?x319 (fp.add roundNearestTiesToEven ?x316 (fp.mul roundNearestTiesToEven (fp #b1 #b10000000011 #x72be8bed57af6) x4))))
 (let ((?x322 (fp.add roundNearestTiesToEven ?x319 (fp.mul roundNearestTiesToEven (fp #b0 #b10000000100 #x4f0ac0b405fea) x5))))
 (let ((?x325 (fp.add roundNearestTiesToEven ?x322 (fp.mul roundNearestTiesToEven (fp #b1 #b10000000100 #x94ec592c0e600) x6))))
 (let ((?x328 (fp.add roundNearestTiesToEven ?x325 (fp.mul roundNearestTiesToEven (fp #b0 #b10000000101 #x40e819984b176) x7))))
 (let ((?x331 (fp.add roundNearestTiesToEven ?x328 (fp.mul roundNearestTiesToEven (fp #b0 #b10000000101 #x5971fa95767e7) x8))))
 (let ((?x334 (fp.add roundNearestTiesToEven ?x331 (fp.mul roundNearestTiesToEven (fp #b1 #b10000000101 #x1e125f24d3c36) x9))))
 (let ((?x337 (fp.add roundNearestTiesToEven ?x334 (fp.mul roundNearestTiesToEven (fp #b1 #b10000000101 #x69d983a7ea47f) x10))))
 (fp.leq ?x337 (fp #b0 #b10000000100 #xdee10ea98f01c)))))))))))))
(assert
 (let ((?x344 (fp.add roundNearestTiesToEven (fp.mul roundNearestTiesToEven (fp #b0 #b10000000011 #x7234bd03f91d3) x0) (fp.mul roundNearestTiesToEven (fp #b1 #b10000000100 #xf27ac34e72cbe) x1))))
 (let ((?x347 (fp.add roundNearestTiesToEven ?x344 (fp.mul roundNearestTiesToEven (fp #b0 #b10000000010 #x524b2cccdd5e8) x2))))
 (let ((?x350 (fp.add roundNearestTiesToEven ?x347 (fp.mul roundNearestTiesToEven (fp #b1 #b10000000010 #xc7d5e34b1a23c) x3))))
 (let ((?x353 (fp.add roundNearestTiesToEven ?x350 (fp.mul roundNearestTiesToEven (fp #b1 #b10000000101 #x0ccde748a2bf2) x4))))
 (let ((?x356 (fp.add roundNearestTiesToEven ?x353 (fp.mul roundNearestTiesToEven (fp #b0 #b10000000011 #xf8bd7aa6a5a8a) x5))))
 (let ((?x359 (fp.add roundNearestTiesToEven ?x356 (fp.mul roundNearestTiesToEven (fp #b1 #b10000000010 #xf5fc69cdee5de) x6))))
 (let ((?x362 (fp.add roundNearestTiesToEven ?x359 (fp.mul roundNearestTiesToEven (fp #b0 #b10000000100 #x846fc70c7ae45) x7))))
 (let ((?x365 (fp.add roundNearestTiesToEven ?x362 (fp.mul roundNearestTiesToEven (fp #b0 #b10000000100 #x713a565317910) x8))))
 (let ((?x368 (fp.add roundNearestTiesToEven ?x365 (fp.mul roundNearestTiesToEven (fp #b0 #b10000000110 #x19d30d108298f) x9))))
 (let ((?x371 (fp.add roundNearestTiesToEven ?x368 (fp.mul roundNearestTiesToEven (fp #b0 #b10000000101 #x830fb3509bf07) x10))))
 (fp.leq ?x371 (fp #b1 #b10000000101 #x0695cf94cc25e)))))))))))))
(assert
 (let ((?x378 (fp.add roundNearestTiesToEven (fp.mul roundNearestTiesToEven (fp #b0 #b10000000100 #x84a8ba975647f) x0) (fp.mul roundNearestTiesToEven (fp #b1 #b10000000100 #xe7839f8c3de3a) x1))))
 (let ((?x381 (fp.add roundNearestTiesToEven ?x378 (fp.mul roundNearestTiesToEven (fp #b0 #b10000000010 #x073745739cfea) x2))))
 (let ((?x384 (fp.add roundNearestTiesToEven ?x381 (fp.mul roundNearestTiesToEven (fp #b0 #b10000000101 #x060049a3f695c) x3))))
 (let ((?x387 (fp.add roundNearestTiesToEven ?x384 (fp.mul roundNearestTiesToEven (fp #b0 #b10000000101 #x995bcddacb26b) x4))))
 (let ((?x390 (fp.add roundNearestTiesToEven ?x387 (fp.mul roundNearestTiesToEven (fp #b1 #b10000000101 #x18405a7930db1) x5))))
 (let ((?x393 (fp.add roundNearestTiesToEven ?x390 (fp.mul roundNearestTiesToEven (fp #b0 #b10000000010 #x5afbd727f7789) x6))))
 (let ((?x396 (fp.add roundNearestTiesToEven ?x393 (fp.mul roundNearestTiesToEven (fp #b1 #b10000000101 #x054564a815c2a) x7))))
 (let ((?x399 (fp.add roundNearestTiesToEven ?x396 (fp.mul roundNearestTiesToEven (fp #b1 #b10000000011 #x0d8917726a872) x8))))
 (let ((?x402 (fp.add roundNearestTiesToEven ?x399 (fp.mul roundNearestTiesToEven (fp #b1 #b10000000100 #xe4253b4c78c2d) x9))))
 (let ((?x405 (fp.add roundNearestTiesToEven ?x402 (fp.mul roundNearestTiesToEven (fp #b1 #b10000000010 #xeb2d8db8a4a4e) x10))))
 (fp.leq ?x405 (fp #b0 #b10000000001 #x2b8e22ba93f10)))))))))))))
(assert
 (let ((?x412 (fp.add roundNearestTiesToEven (fp.mul roundNearestTiesToEven (fp #b1 #b10000000101 #x92d7827dd3baf) x0) (fp.mul roundNearestTiesToEven (fp #b0 #b10000000101 #x74a01839958d5) x1))))
 (let ((?x415 (fp.add roundNearestTiesToEven ?x412 (fp.mul roundNearestTiesToEven (fp #b1 #b10000000100 #xb7fe885f378be) x2))))
 (let ((?x418 (fp.add roundNearestTiesToEven ?x415 (fp.mul roundNearestTiesToEven (fp #b1 #b10000000011 #x5437fba79d74c) x3))))
 (let ((?x421 (fp.add roundNearestTiesToEven ?x418 (fp.mul roundNearestTiesToEven (fp #b0 #b10000000100 #x3ac6370c97f82) x4))))
 (let ((?x424 (fp.add roundNearestTiesToEven ?x421 (fp.mul roundNearestTiesToEven (fp #b0 #b10000000100 #x1527acb264102) x5))))
 (let ((?x427 (fp.add roundNearestTiesToEven ?x424 (fp.mul roundNearestTiesToEven (fp #b1 #b10000000101 #x607a910b1fd6a) x6))))
 (let ((?x430 (fp.add roundNearestTiesToEven ?x427 (fp.mul roundNearestTiesToEven (fp #b0 #b10000000011 #x0a36d9ed9ce50) x7))))
 (let ((?x433 (fp.add roundNearestTiesToEven ?x430 (fp.mul roundNearestTiesToEven (fp #b1 #b10000000101 #x83a7427b7af82) x8))))
 (let ((?x436 (fp.add roundNearestTiesToEven ?x433 (fp.mul roundNearestTiesToEven (fp #b0 #b10000000101 #x71ce33129f2bd) x9))))
 (let ((?x439 (fp.add roundNearestTiesToEven ?x436 (fp.mul roundNearestTiesToEven (fp #b1 #b10000000101 #x184b3eae3e7ee) x10))))
 (fp.leq ?x439 (fp #b1 #b10000000101 #x9e2a6192883ca)))))))))))))
(assert
 (let ((?x446 (fp.add roundNearestTiesToEven (fp.mul roundNearestTiesToEven (fp #b1 #b10000000011 #xd0d918aac8985) x0) (fp.mul roundNearestTiesToEven (fp #b0 #b10000000010 #x2712e8b54033f) x1))))
 (let ((?x449 (fp.add roundNearestTiesToEven ?x446 (fp.mul roundNearestTiesToEven (fp #b1 #b10000000101 #x0609a12de96f0) x2))))
 (let ((?x452 (fp.add roundNearestTiesToEven ?x449 (fp.mul roundNearestTiesToEven (fp #b0 #b10000000101 #xb8316d1253fae) x3))))
 (let ((?x455 (fp.add roundNearestTiesToEven ?x452 (fp.mul roundNearestTiesToEven (fp #b1 #b10000000101 #x536b1dc62169a) x4))))
 (let ((?x458 (fp.add roundNearestTiesToEven ?x455 (fp.mul roundNearestTiesToEven (fp #b0 #b10000000100 #x92dbc98d14c4a) x5))))
 (let ((?x461 (fp.add roundNearestTiesToEven ?x458 (fp.mul roundNearestTiesToEven (fp #b0 #b10000000101 #x24ce1c234d00e) x6))))
 (let ((?x464 (fp.add roundNearestTiesToEven ?x461 (fp.mul roundNearestTiesToEven (fp #b0 #b10000000100 #x579951573bbe5) x7))))
 (let ((?x467 (fp.add roundNearestTiesToEven ?x464 (fp.mul roundNearestTiesToEven (fp #b0 #b10000000011 #xe0e6248b14d46) x8))))
 (let ((?x470 (fp.add roundNearestTiesToEven ?x467 (fp.mul roundNearestTiesToEven (fp #b0 #b10000000010 #x7197b94c37f65) x9))))
 (let ((?x473 (fp.add roundNearestTiesToEven ?x470 (fp.mul roundNearestTiesToEven (fp #b0 #b10000000101 #x3294b0db1f8a1) x10))))
 (fp.leq ?x473 (fp #b0 #b10000000101 #x68c98412de086)))))))))))))
(assert
 (let ((?x480 (fp.add roundNearestTiesToEven (fp.mul roundNearestTiesToEven (fp #b1 #b10000000101 #x2318db3c899b5) x0) (fp.mul roundNearestTiesToEven (fp #b1 #b10000000011 #x9f144b830f1f7) x1))))
 (let ((?x483 (fp.add roundNearestTiesToEven ?x480 (fp.mul roundNearestTiesToEven (fp #b1 #b01111111110 #x99d817bdec5f0) x2))))
 (let ((?x486 (fp.add roundNearestTiesToEven ?x483 (fp.mul roundNearestTiesToEven (fp #b1 #b10000000100 #xd07568436be51) x3))))
 (let ((?x489 (fp.add roundNearestTiesToEven ?x486 (fp.mul roundNearestTiesToEven (fp #b1 #b10000000100 #x3bf4730a9a59c) x4))))
 (let ((?x492 (fp.add roundNearestTiesToEven ?x489 (fp.mul roundNearestTiesToEven (fp #b1 #b10000000101 #x027540d47c8a6) x5))))
 (let ((?x495 (fp.add roundNearestTiesToEven ?x492 (fp.mul roundNearestTiesToEven (fp #b0 #b10000000011 #x14a367c8591ce) x6))))
 (let ((?x498 (fp.add roundNearestTiesToEven ?x495 (fp.mul roundNearestTiesToEven (fp #b1 #b10000000101 #xef4b98a2b0229) x7))))
 (let ((?x501 (fp.add roundNearestTiesToEven ?x498 (fp.mul roundNearestTiesToEven (fp #b0 #b10000000010 #x5ac74c9a0e964) x8))))
 (let ((?x504 (fp.add roundNearestTiesToEven ?x501 (fp.mul roundNearestTiesToEven (fp #b1 #b10000000011 #xa47a80ae15aca) x9))))
 (let ((?x507 (fp.add roundNearestTiesToEven ?x504 (fp.mul roundNearestTiesToEven (fp #b0 #b10000000101 #x867c1df1a5930) x10))))
 (fp.leq ?x507 (fp #b0 #b10000000101 #x69fce699414d4)))))))))))))
(assert
 (fp.geq x0 (fp #b1 #b10000100000 #x2a05f20000000)))
(assert
 (fp.leq x0 (fp #b0 #b10000100000 #x2a05f20000000)))
(assert
 (fp.geq x1 (fp #b1 #b10000100000 #x2a05f20000000)))
(assert
 (fp.leq x1 (fp #b0 #b10000100000 #x2a05f20000000)))
(assert
 (fp.geq x2 (fp #b1 #b10000100000 #x2a05f20000000)))
(assert
 (fp.leq x2 (fp #b0 #b10000100000 #x2a05f20000000)))
(assert
 (fp.geq x3 (fp #b1 #b10000100000 #x2a05f20000000)))
(assert
 (fp.leq x3 (fp #b0 #b10000100000 #x2a05f20000000)))
(assert
 (fp.geq x4 (fp #b1 #b10000100000 #x2a05f20000000)))
(assert
 (fp.leq x4 (fp #b0 #b10000100000 #x2a05f20000000)))
(assert
 (fp.geq x5 (fp #b1 #b10000100000 #x2a05f20000000)))
(assert
 (fp.leq x5 (fp #b0 #b10000100000 #x2a05f20000000)))
(assert
 (fp.geq x6 (fp #b1 #b10000100000 #x2a05f20000000)))
(assert
 (fp.leq x6 (fp #b0 #b10000100000 #x2a05f20000000)))
(assert
 (fp.geq x7 (fp #b1 #b10000100000 #x2a05f20000000)))
(assert
 (fp.leq x7 (fp #b0 #b10000100000 #x2a05f20000000)))
(assert
 (fp.geq x8 (fp #b1 #b10000100000 #x2a05f20000000)))
(assert
 (fp.leq x8 (fp #b0 #b10000100000 #x2a05f20000000)))
(assert
 (fp.geq x9 (fp #b1 #b10000100000 #x2a05f20000000)))
(assert
 (fp.leq x9 (fp #b0 #b10000100000 #x2a05f20000000)))
(assert
 (fp.geq x10 (fp #b1 #b10000100000 #x2a05f20000000)))
(assert
 (fp.leq x10 (fp #b0 #b10000100000 #x2a05f20000000)))
(check-sat)
(exit)
